p cnf 8 27
2 4 0
-5 0
6 0
-4 0
8 2 5 6 0
-3 7 0
2 -1 7 0
-5 0
-5 0
3 0
3 4 7 0
4 -2 0
8 -7 -6 -4 0
-3 0
1 -5 -3 -2 0
-5 4 5 0
1 -6 -1 7 0
1 3 4 -4 0
8 -4 -1 6 0
3 4 -3 -2 0
4 0
3 6 -2 0
-8 -4 -2 0
-8 6 0
3 -3 7 0
-6 2 4 -5 0
-5 -4 -3 6 0
